NAME : iia10
COMMENT : 10 ciudades en circunferencia radio 1000
TYPE : TSP
DIMENSION: 10
EDGE_WEIGHT_TYPE : EUC_2D
NODE_COORD_SECTION
1 2000.0 1000.0
2 1809.0169943749474 1587.7852522924732
3 1309.0169943749474 1951.0565162951534
4 690.9830056250527 1951.0565162951536
5 190.98300562505267 1587.7852522924732
6 0.0 1000.0000000000001
7 190.98300562505256 412.21474770752695
8 690.9830056250524 48.94348370484647
9 1309.0169943749472 48.94348370484636
10 1809.0169943749474 412.2147477075266
EOF
